Instance: E200-16b.dat
Class:  3
  199 --- number of customers (no depot)
   40 --- number of vehicles
  402 --- number of items
Capacity - height - width of vehicles
   200     40     20
Node - x - y - demand
    0    35.0    35.0     0.0
    1    41.0    49.0    10.0
    2    35.0    17.0     7.0
    3    55.0    45.0    13.0
    4    55.0    20.0    19.0
    5    15.0    30.0    26.0
    6    25.0    30.0     3.0
    7    20.0    50.0     5.0
    8    10.0    43.0     9.0
    9    55.0    60.0    16.0
   10    30.0    60.0    16.0
   11    20.0    65.0    12.0
   12    50.0    35.0    19.0
   13    30.0    25.0    23.0
   14    15.0    10.0    20.0
   15    30.0     5.0     8.0
   16    10.0    20.0    19.0
   17     5.0    30.0     2.0
   18    20.0    40.0    12.0
   19    15.0    60.0    17.0
   20    45.0    65.0     9.0
   21    45.0    20.0    11.0
   22    45.0    10.0    18.0
   23    55.0     5.0    29.0
   24    65.0    35.0     3.0
   25    65.0    20.0     6.0
   26    45.0    30.0    17.0
   27    35.0    40.0    16.0
   28    41.0    37.0    16.0
   29    64.0    42.0     9.0
   30    40.0    60.0    21.0
   31    31.0    52.0    27.0
   32    35.0    69.0    23.0
   33    53.0    52.0    11.0
   34    65.0    55.0    14.0
   35    63.0    65.0     8.0
   36     2.0    60.0     5.0
   37    20.0    20.0     8.0
   38     5.0     5.0    16.0
   39    60.0    12.0    31.0
   40    40.0    25.0     9.0
   41    42.0     7.0     5.0
   42    24.0    12.0     5.0
   43    23.0     3.0     7.0
   44    11.0    14.0    18.0
   45     6.0    38.0    16.0
   46     2.0    48.0     1.0
   47     8.0    56.0    27.0
   48    13.0    52.0    36.0
   49     6.0    68.0    30.0
   50    47.0    47.0    13.0
   51    49.0    58.0    10.0
   52    27.0    43.0     9.0
   53    37.0    31.0    14.0
   54    57.0    29.0    18.0
   55    63.0    23.0     2.0
   56    53.0    12.0     6.0
   57    32.0    12.0     7.0
   58    36.0    26.0    18.0
   59    21.0    24.0    28.0
   60    17.0    34.0     3.0
   61    12.0    24.0    13.0
   62    24.0    58.0    19.0
   63    27.0    69.0    10.0
   64    15.0    77.0     9.0
   65    62.0    77.0    20.0
   66    49.0    73.0    25.0
   67    67.0     5.0    25.0
   68    56.0    39.0    36.0
   69    37.0    47.0     6.0
   70    37.0    56.0     5.0
   71    57.0    68.0    15.0
   72    47.0    16.0    25.0
   73    44.0    17.0     9.0
   74    46.0    13.0     8.0
   75    49.0    11.0    18.0
   76    49.0    42.0    13.0
   77    53.0    43.0    14.0
   78    61.0    52.0     3.0
   79    57.0    48.0    23.0
   80    56.0    37.0     6.0
   81    55.0    54.0    26.0
   82    15.0    47.0    16.0
   83    14.0    37.0    11.0
   84    11.0    31.0     7.0
   85    16.0    22.0    41.0
   86     4.0    18.0    35.0
   87    28.0    18.0    26.0
   88    26.0    52.0     9.0
   89    26.0    35.0    15.0
   90    31.0    67.0     3.0
   91    15.0    19.0     1.0
   92    22.0    22.0     2.0
   93    18.0    24.0    22.0
   94    26.0    27.0    27.0
   95    25.0    24.0    20.0
   96    22.0    27.0    11.0
   97    25.0    21.0    12.0
   98    19.0    21.0    10.0
   99    20.0    26.0     9.0
  100    18.0    18.0    17.0
  101    37.0    52.0     7.0
  102    49.0    49.0    30.0
  103    52.0    64.0    16.0
  104    20.0    26.0     9.0
  105    40.0    30.0    21.0
  106    21.0    47.0    15.0
  107    17.0    63.0    19.0
  108    31.0    62.0    23.0
  109    52.0    33.0    11.0
  110    51.0    21.0     5.0
  111    42.0    41.0    19.0
  112    31.0    32.0    29.0
  113     5.0    25.0    23.0
  114    12.0    42.0    21.0
  115    36.0    16.0    10.0
  116    52.0    41.0    15.0
  117    27.0    23.0     3.0
  118    17.0    33.0    41.0
  119    13.0    13.0     9.0
  120    57.0    58.0    28.0
  121    62.0    42.0     8.0
  122    42.0    57.0     8.0
  123    16.0    57.0    16.0
  124     8.0    52.0    10.0
  125     7.0    38.0    28.0
  126    27.0    68.0     7.0
  127    30.0    48.0    15.0
  128    43.0    67.0    14.0
  129    58.0    48.0     6.0
  130    58.0    27.0    19.0
  131    37.0    69.0    11.0
  132    38.0    46.0    12.0
  133    46.0    10.0    23.0
  134    61.0    33.0    26.0
  135    62.0    63.0    17.0
  136    63.0    69.0     6.0
  137    32.0    22.0     9.0
  138    45.0    35.0    15.0
  139    59.0    15.0    14.0
  140     5.0     6.0     7.0
  141    10.0    17.0    27.0
  142    21.0    10.0    13.0
  143     5.0    64.0    11.0
  144    30.0    15.0    16.0
  145    39.0    10.0    10.0
  146    32.0    39.0     5.0
  147    25.0    32.0    25.0
  148    25.0    55.0    17.0
  149    48.0    28.0    18.0
  150    56.0    37.0    10.0
  151    22.0    22.0    18.0
  152    36.0    26.0    26.0
  153    21.0    45.0    11.0
  154    45.0    35.0    30.0
  155    55.0    20.0    21.0
  156    33.0    34.0    19.0
  157    50.0    50.0    15.0
  158    55.0    45.0    16.0
  159    26.0    59.0    29.0
  160    40.0    66.0    26.0
  161    55.0    65.0    37.0
  162    35.0    51.0    16.0
  163    62.0    35.0    12.0
  164    62.0    57.0    31.0
  165    62.0    24.0     8.0
  166    21.0    36.0    19.0
  167    33.0    44.0    20.0
  168     9.0    56.0    13.0
  169    62.0    48.0    15.0
  170    66.0    14.0    22.0
  171    44.0    13.0    28.0
  172    26.0    13.0    12.0
  173    11.0    28.0     6.0
  174     7.0    43.0    27.0
  175    17.0    64.0    14.0
  176    41.0    46.0    18.0
  177    55.0    34.0    17.0
  178    35.0    16.0    29.0
  179    52.0    26.0    13.0
  180    43.0    26.0    22.0
  181    31.0    76.0    25.0
  182    22.0    53.0    28.0
  183    26.0    29.0    27.0
  184    50.0    40.0    19.0
  185    55.0    50.0    10.0
  186    54.0    10.0    12.0
  187    60.0    15.0    14.0
  188    47.0    66.0    24.0
  189    30.0    60.0    16.0
  190    30.0    50.0    33.0
  191    12.0    17.0    15.0
  192    15.0    14.0    11.0
  193    16.0    19.0    18.0
  194    21.0    48.0    17.0
  195    50.0    30.0    21.0
  196    51.0    42.0    27.0
  197    50.0    15.0    19.0
  198    48.0    21.0    20.0
  199    12.0    38.0     5.0
Node - number of items - h - w for each item
    0   0
    1   2    5   10   28    3
    2   1    7   10
    3   2    8    8   25    4
    4   2   12    7   28    3
    5   3    7   13    5   13    6    9
    6   3    7   16   14    7   23    3
    7   3    7   11   16    7   14    5
    8   1   11    5
    9   2   15    5   21    3
   10   2    4   10   10    4
   11   3   23    4   25    3   17    3
   12   1   14    4
   13   3   10    6   15    5   31    2
   14   3    6    8    9    6   22    3
   15   1   10    7
   16   2    9    6   22    3
   17   3   13    5    9    5   18    3
   18   2    7   15    9    8
   19   2   12    6    9    4
   20   1   21    2
   21   2    6    6   29    3
   22   1   11    6
   23   3    8   16   11    5   22    2
   24   1   10    6
   25   2   12    8    7    7
   26   2   16    7    6    7
   27   3    8   15    7    6   20    3
   28   3    7    9   11    6   13    4
   29   3   11    8   16    6   13    5
   30   3    5   15   12    6   12    4
   31   2    6    8    9    4
   32   2    6   10   15    5
   33   2    7   11    6   11
   34   2   10    6   19    4
   35   2    7   12   11    6
   36   2    9    5   26    2
   37   3   16    8   15    6   20    2
   38   1   27    3
   39   3    4   15    7   13    7    6
   40   3    5   11    6    9    5    9
   41   2   15    6   10    4
   42   3    6   15    7    9   15    3
   43   2    8    8   27    3
   44   2    5   10   29    3
   45   1   17    3
   46   3    5   15   13    6   32    3
   47   2    7   11   16    3
   48   2   29    4   23    4
   49   1   12    5
   50   2    5   11   12    7
   51   1   11    5
   52   2    8    9    7    8
   53   3    4   14   29    3   32    2
   54   2   15    6   25    4
   55   1    9    7
   56   3   28    3   17    2   13    2
   57   3    5   10    7    8   13    7
   58   3    4    9    5    7   13    6
   59   3   26    3   17    3   31    2
   60   2    9    6   24    4
   61   1    5   13
   62   3   14    7   16    6   31    2
   63   2   14    4   26    3
   64   2   23    4   32    2
   65   1   22    4
   66   1    5   11
   67   3   11    8   30    3   15    2
   68   1   25    3
   69   3    7   15    8   12   14    4
   70   2    4   13   15    6
   71   1    5   16
   72   1    7   16
   73   1    5    9
   74   1    6   14
   75   1   23    4
   76   3    7    9   14    8   11    7
   77   2    7   16   13    5
   78   2    7    7   15    6
   79   1   14    4
   80   2    8    7   14    3
   81   3   11    7    8    7    6    7
   82   3    7   11   15    6   16    4
   83   3    6   12    6   10   27    2
   84   2    8    6   13    4
   85   3    5   11   15    5   29    2
   86   3    5   11   18    4   15    3
   87   1   10    7
   88   3    8    8    7    7   31    3
   89   2   15    4   24    2
   90   1    5    7
   91   2    7   13    6    9
   92   3    5   10   16    3   12    3
   93   1    7   11
   94   1    7   15
   95   3    7   11   22    3   13    2
   96   1   13    7
   97   3   14    6   13    6   10    6
   98   1   13    4
   99   2   15    6   13    6
  100   1    9    7
  101   2    4   12   12    5
  102   1   25    4
  103   2    4    7   14    6
  104   3    5   14   10    5    8    5
  105   2    6   13    6   11
  106   1    7   15
  107   2    4   12   21    3
  108   1   13    3
  109   3   15    6    9    4   28    2
  110   2    5    7   25    3
  111   3   13    8   14    7   17    3
  112   3    8   15   15    6   20    2
  113   1   15    3
  114   3    7   10   16    3   16    3
  115   3    6    7   31    3   18    2
  116   2    7   13    9    6
  117   2   15    6   21    2
  118   1   13    6
  119   2   26    3   19    2
  120   3    8    5   27    3   21    2
  121   2    7   16   12    2
  122   3    7   12    8    4   18    2
  123   2   12    4   21    2
  124   3    8    8    8    7    8    4
  125   1    7   15
  126   3    4   12    9    6   29    4
  127   3    6   12   11    6   10    4
  128   2    6   13   30    4
  129   2   12    7   13    5
  130   3    5   10    6    9   31    3
  131   1   32    3
  132   1    7    9
  133   2   25    4   20    2
  134   3    4   12    5    8   15    6
  135   3    8    8   32    4   21    4
  136   1    6   10
  137   3    5   13    9    6    5    6
  138   1    6   16
  139   2   15    7   12    4
  140   1    6    9
  141   1   30    3
  142   1   14    5
  143   1    8    7
  144   3    5   10   10    7    9    5
  145   2   26    4   15    3
  146   3   10    6   27    3   26    3
  147   1   15    6
  148   2   27    4   26    4
  149   1   17    3
  150   3   29    2   27    2   17    2
  151   2   31    2   22    2
  152   1   25    2
  153   3    5   15   14    7   12    5
  154   2    7   13   18    4
  155   3    8   11    5   11   10    4
  156   1   23    3
  157   2    5   15   30    2
  158   2    9    8   14    6
  159   3   10    7   10    7   26    3
  160   1   31    2
  161   1    7   12
  162   2    8    7   11    4
  163   3    6    7   30    3   16    3
  164   2   19    4   13    2
  165   1   15    3
  166   3   12    7    8    7   12    3
  167   2    8   11   13    7
  168   1   28    3
  169   1    8    5
  170   1   10    5
  171   1    9    4
  172   3    7   14   10    5   24    3
  173   3    6    7   12    6   16    4
  174   3    5   16   15    5   17    4
  175   1    9    5
  176   1   13    5
  177   1    8   12
  178   3    6   15    5   12    9    7
  179   3    8    8    8    7    5    6
  180   3    5   10    9    6   20    2
  181   2    7   12   15    5
  182   2   10    5   12    3
  183   2    7   10    9    6
  184   1    9    6
  185   2   31    3   30    3
  186   3    8   15   14    8   14    8
  187   2    7   13    8   11
  188   1    4   11
  189   3   10    7   15    6   14    6
  190   1    5   14
  191   3    6   15   11    6   23    3
  192   2   11    6   14    5
  193   1   30    3
  194   2    5    7   15    6
  195   1   30    4
  196   2    7    8    9    6
  197   1   15    4
  198   2    8    7   12    5
  199   2    7    7   11    6
